632
441
574
528
407
452
535
482
469
540
488
429
454
477
630
414
436
524
491
446
533
521
505
411
436
462
459
367
401
429
461
508
466
466
421
482
503
397
394
383
421
479
511
456
568
555
492
494
520
520
522
533
450
435
592
355
374
446
486
440
351
520
417
432
444
593
550
572
479
577
452
468
517
422
476
588
569
468
349
459
476
371
493
507
521
461
595
573
471
537
511
528
522
427
411
491
468
418
528
389
